proyfinal/src/viki/013/experimentInOfficeAgust.take6.output/eeec6b31-9649-4ff0-8957-0ffb11e42fa5.als.dat
{'cnf.clauses': '118081',
 'cnf.totvars': '69608',
 'conflict literals': '77',
 'conflicts': '33',
 'decisions': '11118',
 'memused.mb': '18.04',
 'outcome': 'UNSAT',
 'propagations': '40147',
 'restarts': '1',
 'solver.msecs': 38,
 'task.msecs': 91}
