proyfinal/src/viki/013/experimentInOfficeAgust.take6.output/eeec6b31-9649-4ff0-8957-0ffb11e42fa5.als.out
Reading from standard input... Use '--help' for help.
============================[ Problem Statistics ]=============================
|                                                                             |
|  Number of variables:         69608                                         |
|  Number of clauses:          118081                                         |
|  Parse time:                   0.03 s                                       |
|                                                                             |
============================[ Search Statistics ]==============================
| Conflicts |          ORIGINAL         |          LEARNT          | Progress |
|           |    Vars  Clauses Literals |    Limit  Clauses Lit/Cl |          |
===============================================================================
===============================================================================
restarts              : 1
conflicts             : 33             (857 /sec)
decisions             : 11118          (0.00 % random) (288674 /sec)
propagations          : 40147          (1042400 /sec)
conflict literals     : 77             (0.00 % deleted)
Memory used           : 18.04 MB
CPU time              : 0.038514 s

UNSATISFIABLE
